
Gurobi 8.1.0 (win64, Python) logging started 03/20/19 23:22:17

Academic license - for non-commercial use only

Gurobi 8.1.0 (win64, Python) logging started 03/21/19 16:00:17

Academic license - for non-commercial use only

Gurobi 8.1.0 (win64, Python) logging started 03/21/19 17:22:13

Academic license - for non-commercial use only

Gurobi 8.1.0 (linux64, Python) logging started Thu Mar 21 14:42:42 2019

Academic license - for non-commercial use only

Gurobi 8.1.0 (linux64, Python) logging started Thu Mar 21 15:05:08 2019

Academic license - for non-commercial use only

Gurobi 8.1.0 (linux64, Python) logging started Thu Mar 21 15:11:22 2019

Academic license - for non-commercial use only

Gurobi 8.1.0 (linux64, Python) logging started Thu Mar 21 15:51:16 2019

Academic license - for non-commercial use only

Gurobi 8.1.0 (linux64, Python) logging started Thu Mar 21 16:23:42 2019

Academic license - for non-commercial use only

Gurobi 8.1.0 (linux64, Python) logging started Thu Mar 21 16:26:22 2019

Academic license - for non-commercial use only

Gurobi 8.1.0 (linux64, Python) logging started Thu Mar 21 16:27:28 2019

Academic license - for non-commercial use only

Gurobi 8.1.0 (linux64, Python) logging started Thu Mar 21 16:36:42 2019

Academic license - for non-commercial use only

Gurobi 8.1.0 (linux64, Python) logging started Thu Mar 21 17:50:30 2019

Academic license - for non-commercial use only

Gurobi 8.1.0 (linux64, Python) logging started Thu Mar 21 17:52:34 2019

Academic license - for non-commercial use only

Gurobi 8.0.1 (linux64, Python) logging started Fri Mar 22 00:12:55 2019

Academic license - for non-commercial use only

Gurobi 8.0.1 (linux64, Python) logging started Fri Mar 22 01:05:43 2019

Academic license - for non-commercial use only

Gurobi 8.0.1 (linux64, Python) logging started Fri Mar 22 01:06:25 2019

Academic license - for non-commercial use only
